c File: instances/16_0.30_1.col
c
c Description: Random graph of size 16 vertices and P(0.3) of edges between any two vertices.
p col 16 120
e 1 5
e 1 11
e 1 12
e 1 13
e 1 14
e 1 16
e 2 5
e 3 8
e 3 14
e 3 16
e 4 6
e 4 8
e 5 6
e 5 12
e 5 14
e 6 7
e 6 9
e 6 12
e 6 14
e 7 13
e 7 15
e 8 9
e 8 10
e 8 11
e 8 12
e 8 13
e 9 10
e 9 16
e 10 13
e 10 14
e 11 15
e 11 16
e 13 14